data;


param d:= 100;
param r:=5;
param p:=0.800000;
param M:=1000;
param U:=
         1         1       -4.081800e-02
         2         1       -1.742603e+00
         3         1        3.205284e-01
         4         1       -6.846195e-01
         5         1       -2.642345e-02
         6         1       -2.447531e-01
         7         1        4.219566e-01
         8         1       -1.230999e+00
         9         1       -1.304384e+00
        10         1        1.719076e+00
        11         1       -1.021092e+00
        12         1        6.527580e-01
        13         1       -7.296721e-01
        14         1        8.820185e-01
        15         1       -3.127419e-01
        16         1        3.145924e-01
        17         1        1.598703e+00
        18         1       -1.165774e+00
        19         1       -1.903427e-01
        20         1       -3.547594e-02
        21         1        3.309466e-01
        22         1       -1.242927e+00
        23         1       -8.613036e-01
        24         1        8.223544e-01
        25         1        4.201148e-01
        26         1        4.857043e-01
        27         1        1.949572e+00
        28         1       -1.873810e-01
        29         1       -6.669363e-01
        30         1       -1.751051e-02
        31         1       -1.021425e+00
        32         1       -5.166212e-01
        33         1        1.298301e+00
        34         1       -8.815579e-01
        35         1        8.373310e-02
        36         1       -8.733421e-03
        37         1       -1.476340e+00
        38         1       -1.876720e+00
        39         1       -1.759322e-01
        40         1        6.029801e-01
        41         1       -4.723415e-01
        42         1        1.607940e-01
        43         1        3.237459e-01
        44         1        9.121754e-01
        45         1       -1.582462e-01
        46         1        1.186989e-01
        47         1       -4.501686e-01
        48         1        2.597092e+00
        49         1        3.603164e-01
        50         1       -2.331975e-01
        51         1        3.162461e-01
        52         1        1.451724e+00
        53         1       -9.974885e-01
        54         1       -1.414934e+00
        55         1       -7.316836e-01
        56         1        1.303615e+00
        57         1       -1.481175e+00
        58         1       -4.788918e-02
        59         1        7.741830e-01
        60         1       -1.344594e+00
        61         1        6.545955e-01
        62         1        1.283763e-01
        63         1       -6.917461e-01
        64         1       -3.920946e-01
        65         1        6.756765e-01
        66         1        2.066030e+00
        67         1        3.880375e-01
        68         1        3.072573e-01
        69         1        6.727594e-01
        70         1       -6.414648e-01
        71         1       -1.870520e+00
        72         1       -3.083324e+00
        73         1       -1.575860e+00
        74         1        9.571318e-01
        75         1       -2.004475e-01
        76         1       -7.532827e-01
        77         1        3.170979e+00
        78         1       -6.025214e-01
        79         1       -5.642367e-01
        80         1       -1.341740e+00
        81         1        5.455698e-01
        82         1        8.258411e-01
        83         1       -7.144950e-01
        84         1        1.298492e+00
        85         1        4.674317e-01
        86         1       -4.691477e-01
        87         1        9.583228e-01
        88         1       -1.284640e-01
        89         1        1.028097e-01
        90         1       -1.568439e+00
        91         1       -5.576553e-02
        92         1       -1.935270e+00
        93         1       -8.700882e-01
        94         1       -4.251227e-01
        95         1       -8.857533e-01
        96         1       -2.611505e-01
        97         1       -5.994603e-01
        98         1        3.425793e-02
        99         1        6.765481e-01
       100         1        6.195194e-01
         1         2        3.550466e-01
         2         2       -1.035161e+00
         3         2       -1.281303e+00
         4         2       -1.725276e+00
         5         2       -2.424601e-01
         6         2        1.055406e+00
         7         2       -4.656121e-02
         8         2        2.420605e-01
         9         2       -8.101323e-01
        10         2       -1.289776e+00
        11         2        3.244952e-01
        12         2        8.624265e-01
        13         2       -6.023994e-01
        14         2       -9.674826e-01
        15         2        5.450915e-01
        16         2       -1.363696e+00
        17         2       -2.502473e-01
        18         2       -6.927009e-01
        19         2       -1.267381e+00
        20         2       -3.282378e-01
        21         2       -1.688572e-01
        22         2        1.698002e+00
        23         2       -5.383789e-01
        24         2        4.512291e-01
        25         2       -5.024073e-01
        26         2       -3.416866e-01
        27         2       -1.818009e-01
        28         2        1.936096e+00
        29         2       -9.858183e-01
        30         2       -2.867669e-01
        31         2        8.622671e-01
        32         2        2.742767e-01
        33         2       -5.794253e-01
        34         2        1.376663e+00
        35         2        6.156890e-01
        36         2       -1.889765e-01
        37         2        1.047258e+00
        38         2       -1.064267e+00
        39         2       -6.641980e-01
        40         2        1.997671e+00
        41         2       -6.833016e-01
        42         2        6.817312e-01
        43         2       -1.472016e+00
        44         2        1.490367e+00
        45         2       -1.192544e+00
        46         2       -1.268780e+00
        47         2        7.702962e-01
        48         2        4.375112e-02
        49         2        2.422168e+00
        50         2        2.551346e-02
        51         2        8.995429e-01
        52         2        3.440418e-01
        53         2        6.919449e-01
        54         2        4.358534e-01
        55         2        2.096843e-01
        56         2        1.309601e+00
        57         2       -2.348861e-01
        58         2        7.693413e-01
        59         2        1.349871e+00
        60         2       -4.111529e-01
        61         2        9.132710e-01
        62         2       -4.266458e-01
        63         2       -1.604980e+00
        64         2        2.205140e+00
        65         2       -6.027621e-02
        66         2        2.151502e+00
        67         2        5.136078e-02
        68         2       -3.023805e+00
        69         2        2.863184e-01
        70         2        1.606643e+00
        71         2       -1.001248e+00
        72         2        1.317592e+00
        73         2       -1.158293e+00
        74         2        7.868388e-01
        75         2        7.511213e-01
        76         2        1.711206e+00
        77         2       -5.704537e-01
        78         2       -1.204858e+00
        79         2       -1.953460e+00
        80         2        4.001001e-01
        81         2       -7.163161e-01
        82         2        1.498559e+00
        83         2        1.537998e+00
        84         2       -8.248691e-01
        85         2        5.648806e-01
        86         2        3.585752e-01
        87         2        3.545253e-02
        88         2       -1.230862e+00
        89         2        4.971411e-01
        90         2        2.225221e+00
        91         2       -7.844644e-01
        92         2        1.290145e+00
        93         2       -1.615932e+00
        94         2       -6.740414e-01
        95         2        1.103132e+00
        96         2       -1.371674e+00
        97         2        4.781053e-01
        98         2        7.625173e-01
        99         2       -8.568273e-01
       100         2       -1.232598e-01
         1         3       -4.435078e-01
         2         3        1.166184e+00
         3         3       -6.370848e-01
         4         3        1.454460e-01
         5         3       -1.674269e+00
         6         3       -1.456250e+00
         7         3        1.200382e-01
         8         3        5.383667e-01
         9         3       -3.153536e-01
        10         3       -1.909324e+00
        11         3        7.817767e-01
        12         3        4.649603e-01
        13         3        5.682481e-01
        14         3       -9.435552e-02
        15         3        9.226573e-01
        16         3       -1.639665e-01
        17         3        6.125453e-01
        18         3       -1.000161e+00
        19         3       -3.065009e-01
        20         3        2.325122e-01
        21         3       -1.174764e+00
        22         3       -7.539199e-01
        23         3       -2.728758e-01
        24         3       -6.162671e-01
        25         3        1.742093e+00
        26         3       -1.148898e+00
        27         3       -1.311040e+00
        28         3        4.443834e-01
        29         3       -8.045088e-01
        30         3        6.668629e-01
        31         3        9.756805e-01
        32         3       -5.108939e-01
        33         3        5.689926e-01
        34         3       -3.079292e-01
        35         3        8.324034e-01
        36         3        9.579041e-01
        37         3        9.446634e-01
        38         3       -9.703033e-01
        39         3       -4.725897e-01
        40         3        7.635960e-01
        41         3       -3.717214e-01
        42         3       -1.386794e-01
        43         3       -5.670762e-01
        44         3        2.086721e+00
        45         3       -1.858369e+00
        46         3       -1.297016e+00
        47         3        6.400571e-01
        48         3        2.189720e+00
        49         3       -2.550888e-01
        50         3        2.137073e-01
        51         3        2.827673e+00
        52         3       -7.807142e-01
        53         3        1.135405e+00
        54         3       -1.811092e+00
        55         3        3.966002e-01
        56         3        5.191838e-01
        57         3       -8.096789e-01
        58         3       -1.630180e-01
        59         3       -3.186670e-01
        60         3        6.331439e-02
        61         3       -5.244211e-01
        62         3        4.791415e-02
        63         3       -8.227210e-01
        64         3       -1.075992e+00
        65         3       -1.694270e+00
        66         3        1.063580e+00
        67         3       -8.582554e-01
        68         3       -2.892484e-01
        69         3        1.155566e+00
        70         3        2.127201e+00
        71         3       -6.603824e-01
        72         3        2.165926e-02
        73         3       -1.361619e+00
        74         3       -7.536690e-01
        75         3       -9.622693e-01
        76         3       -1.153274e+00
        77         3       -3.097099e-01
        78         3        6.772001e-01
        79         3       -8.422580e-01
        80         3       -3.732939e-01
        81         3        7.197271e-01
        82         3       -5.280263e-01
        83         3        1.080366e-01
        84         3        1.211283e+00
        85         3        8.444631e-01
        86         3        7.319155e-01
        87         3        4.518210e-01
        88         3        9.642402e-01
        89         3        5.356426e-01
        90         3       -6.693629e-01
        91         3        3.952816e-01
        92         3       -2.049521e+00
        93         3       -9.269691e-01
        94         3        1.883304e-02
        95         3       -1.740480e+00
        96         3       -2.578535e-01
        97         3       -3.675284e-01
        98         3       -8.210620e-01
        99         3        1.255600e+00
       100         3       -1.982688e+00
         1         4        1.907271e+00
         2         4        3.866417e-01
         3         4        1.917652e+00
         4         4       -6.111272e-01
         5         4       -1.017688e+00
         6         4       -2.569778e-01
         7         4        7.984800e-01
         8         4        4.856324e-01
         9         4        1.147387e+00
        10         4       -7.167503e-01
        11         4       -6.684996e-01
        12         4        9.192572e-01
        13         4       -2.897889e-01
        14         4       -4.216833e-01
        15         4        3.334541e-01
        16         4        1.848208e+00
        17         4       -1.692047e+00
        18         4        1.190195e+00
        19         4        1.891218e+00
        20         4        1.020782e+00
        21         4       -2.972794e-01
        22         4       -1.121074e+00
        23         4        2.280222e-02
        24         4        5.742826e-01
        25         4       -7.062993e-01
        26         4       -8.873549e-01
        27         4        1.442527e+00
        28         4        2.795109e-01
        29         4        3.048630e+00
        30         4       -1.364900e+00
        31         4       -9.886314e-01
        32         4       -1.564199e+00
        33         4        5.497443e-01
        34         4       -1.310697e+00
        35         4        3.991361e-02
        36         4        9.250696e-01
        37         4       -1.675322e+00
        38         4       -8.916786e-01
        39         4        8.743388e-01
        40         4       -3.184235e-01
        41         4        5.289401e-01
        42         4        1.402425e-01
        43         4       -9.294660e-01
        44         4       -1.195761e-01
        45         4        4.659466e-01
        46         4       -9.560146e-01
        47         4        4.579444e-03
        48         4        1.920559e+00
        49         4        3.460007e+00
        50         4       -6.627616e-02
        51         4        1.227083e+00
        52         4        1.152601e+00
        53         4       -2.310900e-01
        54         4        4.998578e-01
        55         4        9.926744e-01
        56         4       -3.785202e-01
        57         4       -1.876349e+00
        58         4        2.689606e-01
        59         4        8.692917e-02
        60         4        1.888794e+00
        61         4        4.252420e-01
        62         4       -1.730085e+00
        63         4        4.101805e-01
        64         4       -1.149758e+00
        65         4        1.798435e+00
        66         4       -2.274856e+00
        67         4       -1.393729e-01
        68         4       -6.662820e-01
        69         4       -4.305849e-02
        70         4        1.424532e+00
        71         4        9.370372e-01
        72         4        2.443550e+00
        73         4       -3.064605e-01
        74         4       -3.612795e-01
        75         4        1.301418e+00
        76         4       -1.088465e+00
        77         4       -4.539033e-01
        78         4        4.048471e-01
        79         4       -3.049775e-01
        80         4       -1.658550e+00
        81         4        9.931761e-01
        82         4        1.086041e+00
        83         4        7.120271e-01
        84         4       -9.693869e-01
        85         4        6.626631e-01
        86         4       -8.360917e-01
        87         4        1.209239e+00
        88         4       -9.628411e-01
        89         4        1.784422e+00
        90         4       -9.867364e-01
        91         4       -1.482151e+00
        92         4        7.277761e-01
        93         4        9.273599e-01
        94         4        8.434921e-01
        95         4        2.794072e-02
        96         4        9.591871e-01
        97         4        2.512921e+00
        98         4        7.221921e-01
        99         4        9.574043e-01
       100         4       -9.493867e-01
         1         5        1.077554e+00
         2         5        6.933870e-01
         3         5        5.000758e-01
         4         5       -1.580587e+00
         5         5       -4.207727e-01
         6         5       -1.165917e+00
         7         5        9.221336e-01
         8         5       -5.618624e-01
         9         5       -1.327192e+00
        10         5        5.503180e-01
        11         5        9.062063e-01
        12         5        1.077495e-01
        13         5        4.924800e-01
        14         5       -7.293590e-01
        15         5       -1.119401e+00
        16         5       -4.939958e-01
        17         5        2.256312e-01
        18         5        1.646656e+00
        19         5       -1.132544e+00
        20         5        1.240980e+00
        21         5       -4.438991e-01
        22         5        1.595330e-01
        23         5       -2.551539e-01
        24         5        3.230893e-01
        25         5        6.785340e-01
        26         5       -8.189812e-01
        27         5        3.794246e-02
        28         5        5.504843e-01
        29         5        2.254331e+00
        30         5        1.356495e+00
        31         5        1.852138e+00
        32         5        5.260116e-01
        33         5        2.157283e-01
        34         5        1.074688e+00
        35         5       -7.395607e-01
        36         5       -5.162904e-01
        37         5        3.164932e-01
        38         5        8.125692e-01
        39         5        9.973157e-01
        40         5       -6.652197e-01
        41         5        9.534820e-01
        42         5        1.014770e+00
        43         5        1.512669e+00
        44         5       -1.315007e+00
        45         5        1.410696e+00
        46         5       -3.926306e-01
        47         5        3.633614e-01
        48         5       -5.296402e-01
        49         5       -5.268417e-01
        50         5       -7.928906e-01
        51         5        4.897439e-01
        52         5        8.591779e-01
        53         5       -1.381393e-01
        54         5        6.090519e-01
        55         5        6.505008e-01
        56         5        6.529644e-01
        57         5        7.745597e-02
        58         5       -3.703927e-01
        59         5        2.169191e+00
        60         5       -6.306173e-01
        61         5        4.621832e-01
        62         5       -7.665575e-01
        63         5       -1.279382e+00
        64         5       -2.594620e-01
        65         5       -5.370134e-01
        66         5       -1.207595e+00
        67         5        3.656073e-01
        68         5        3.246654e-02
        69         5       -2.357471e+00
        70         5        7.912999e-01
        71         5       -2.433470e-01
        72         5       -6.076703e-01
        73         5       -8.225116e-01
        74         5       -8.209467e-01
        75         5       -4.696277e-01
        76         5        1.999402e-01
        77         5       -1.245819e+00
        78         5       -3.136103e-01
        79         5        6.709783e-01
        80         5        3.089105e-01
        81         5        4.068503e-01
        82         5        2.009337e+00
        83         5       -1.111099e+00
        84         5        1.333963e-02
        85         5        6.295284e-02
        86         5        1.267021e+00
        87         5        1.512665e+00
        88         5        1.389647e+00
        89         5        1.305365e+00
        90         5       -1.905531e+00
        91         5       -1.845182e+00
        92         5       -4.426368e-01
        93         5       -1.233292e-01
        94         5       -3.684127e-01
        95         5       -3.287732e-01
        96         5       -4.663739e-01
        97         5        6.756622e-01
        98         5       -1.527385e+00
        99         5       -1.650538e+00
       100         5       -1.330563e+00
;

param theta:=
    1        7.116094e-01
    2       -1.850535e+00
    3        3.005044e-01
    4        1.733727e-01
    5        1.633357e+00
;
param X_true:=
    1        1.273072e+00
    2        2.225707e+00
    3        3.556485e+00
    4        6.161425e-02
    5       -9.359822e-01
    6       -4.514135e+00
    7        2.066157e+00
    8       -1.997024e+00
    9       -1.493212e+00
   10        3.811705e+00
   11        2.725608e-01
   12       -6.554123e-01
   13        1.521029e+00
   14        1.125450e+00
   15       -2.725468e+00
   16        2.211170e+00
   17        1.860649e+00
   18        3.047283e+00
   19        5.954233e-01
   20        2.855638e+00
   21       -5.795920e-01
   22       -4.188359e+00
   23       -1.099148e-01
   24        1.923142e-01
   25        2.738045e+00
   26       -8.588548e-01
   27        1.642253e+00
   28       -2.636220e+00
   29        5.319991e+00
   30        2.697434e+00
   31        8.240565e-01
   32       -4.396198e-01
   33        2.615424e+00
   34       -1.739426e+00
   35       -2.030146e+00
   36       -5.190091e-02
   37       -2.478583e+00
   38        1.513904e+00
   39        2.742711e+00
   40       -4.180922e+00
   41        2.464456e+00
   42        4.936622e-01
   43        5.093509e+00
   44       -3.649619e+00
   45        3.919482e+00
   46        1.239110e+00
   47       -9.595789e-01
   48        1.893686e+00
   49       -4.563968e+00
   50       -1.454990e+00
   51        4.222119e-01
   52        1.764711e+00
   53       -1.915837e+00
   54       -1.277080e+00
   55        4.451795e-01
   56       -3.384933e-01
   57       -1.060183e+00
   58       -2.065064e+00
   59        1.515460e+00
   60       -8.786810e-01
   61       -5.532832e-01
   62       -6.585600e-01
   63        2.118805e-01
   64       -5.306073e+00
   65       -4.834502e-01
   66       -4.556533e+00
   67        4.976578e-01
   68        5.665803e+00
   69       -3.562009e+00
   70       -1.249795e+00
   71        8.910219e-02
   72       -5.194079e+00
   73       -7.847612e-01
   74       -2.406250e+00
   75       -2.362816e+00
   76       -3.909740e+00
   77        1.105351e+00
   78        1.562235e+00
   79        4.004500e+00
   80       -1.590698e+00
   81        2.767317e+00
   82        1.125018e+00
   83       -5.013041e+00
   84        2.668048e+00
   85       -2.405141e-01
   86        1.147469e+00
   87        3.434548e+00
   88        4.577302e+00
   89        1.754730e+00
   90       -8.719192e+00
   91       -1.738475e+00
   92       -4.976632e+00
   93        2.049844e+00
   94        4.943968e-01
   95       -3.727699e+00
   96        1.681177e+00
   97        1.177168e-01
   98       -4.003174e+00
   99       -8.508332e-02
  100       -2.265948e+00
;
param X:=
    1       -7.506199e-01
    2       -1.937327e-01
    3        8.872561e-01
    4       -1.324393e+00
    5       -5.846584e-01
    6       -1.980007e+00
    7        2.066157e+00
    8       -4.146241e-03
    9       -7.016275e-01
   10        6.959847e-01
   11        4.977405e-01
   12       -1.182032e+00
   13        1.346603e-01
   14        1.096777e+00
   15        3.406187e-03
   16       -8.392911e-01
   17        5.412072e-01
   18       -9.943680e-02
   19        2.297138e-01
   20       -9.030810e-02
   21        5.510090e-01
   22       -3.169766e-01
   23       -1.099148e-01
   24        1.036604e-01
   25       -1.880932e+00
   26       -8.588548e-01
   27        6.189475e-01
   28       -1.114684e+00
   29        9.557694e-01
   30        2.697434e+00
   31        1.568860e+00
   32        2.019659e+00
   33        2.615424e+00
   34        1.102067e+00
   35        4.979063e-02
   36        1.071555e+00
   37       -2.511011e+00
   38       -7.423276e-01
   39       -4.110494e-01
   40        4.276952e-01
   41       -1.472778e+00
   42        4.936622e-01
   43       -4.104088e-01
   44       -9.104231e-02
   45        1.276679e+00
   46        1.239110e+00
   47       -9.595789e-01
   48        1.893686e+00
   49        1.159409e+00
   50        2.176023e-01
   51       -5.563139e-01
   52       -2.472444e+00
   53       -1.193102e+00
   54       -5.201075e-01
   55        3.391265e-01
   56       -3.384933e-01
   57       -1.060183e+00
   58       -3.649575e-01
   59       -6.091853e-01
   60        3.884505e-01
   61       -5.532832e-01
   62        5.351573e-01
   63        2.118805e-01
   64        1.450872e+00
   65       -4.834502e-01
   66       -4.556533e+00
   67       -6.069371e-01
   68       -1.417471e-01
   69       -8.169335e-01
   70       -1.673752e+00
   71        8.910219e-02
   72       -5.194079e+00
   73       -5.858280e-01
   74       -5.340643e-01
   75        5.864668e-01
   76       -3.909740e+00
   77       -8.768438e-01
   78       -3.023802e-01
   79        4.004500e+00
   80       -1.590698e+00
   81       -3.450727e-01
   82       -1.274968e+00
   83       -3.565386e-02
   84        7.829329e-01
   85       -5.457572e-01
   86       -2.602621e-01
   87        1.378549e+00
   88        2.280646e+00
   89        6.072068e-01
   90       -2.139204e+00
   91        6.096750e-01
   92        2.863807e+00
   93       -4.704398e-01
   94        8.764364e-01
   95        2.287393e+00
   96       -8.096239e-01
   97       -8.139650e-01
   98       -1.907682e+00
   99        3.825714e-01
  100       -8.893851e-01
;
param outliervec:=
    1    1
    2    1
    3    1
    4    1
    5    1
    6    1
    7    0
    8    1
    9    1
   10    1
   11    1
   12    1
   13    1
   14    1
   15    1
   16    1
   17    1
   18    1
   19    1
   20    1
   21    1
   22    1
   23    0
   24    1
   25    1
   26    0
   27    1
   28    1
   29    1
   30    0
   31    1
   32    1
   33    0
   34    1
   35    1
   36    1
   37    1
   38    1
   39    1
   40    1
   41    1
   42    0
   43    1
   44    1
   45    1
   46    0
   47    0
   48    0
   49    1
   50    1
   51    1
   52    1
   53    1
   54    1
   55    1
   56    0
   57    0
   58    1
   59    1
   60    1
   61    0
   62    1
   63    0
   64    1
   65    0
   66    0
   67    1
   68    1
   69    1
   70    1
   71    0
   72    0
   73    1
   74    1
   75    1
   76    0
   77    1
   78    1
   79    0
   80    0
   81    1
   82    1
   83    1
   84    1
   85    1
   86    1
   87    1
   88    1
   89    1
   90    1
   91    1
   92    1
   93    1
   94    1
   95    1
   96    1
   97    1
   98    1
   99    1
  100    1
;